# Solution for model micodag
# Objective value = 1.9495168777051692e+01
s_0_1 0
s_1_0 0
s_0_2 0
s_2_0 1.7252529107538361e-01
s_1_2 0
s_2_1 2.5148926729156695e-01
s_1_3 0
s_3_1 1.8566735062977502e-01
s_1_9 0
s_9_1 0
s_1_12 0
s_12_1 7.8464355640767147e-01
s_1_13 0
s_13_1 1.9970671125295958e-01
s_2_3 0
s_3_2 2.5404202983758806e-01
s_2_4 0
s_4_2 2.8731756075026160e-01
s_2_6 0
s_6_2 0
s_2_8 0
s_8_2 1.9923629691098776e-01
s_3_4 0
s_4_3 5.7284974748196138e-01
s_3_6 0
s_6_3 0
s_3_7 0
s_7_3 0
s_3_8 0
s_8_3 3.8208520585495531e-01
s_3_9 0
s_9_3 3.6923704196284035e-01
s_3_12 0
s_12_3 0
s_3_13 0
s_13_3 0.376481913686626
s_4_5 0
s_5_4 0
s_4_6 0
s_6_4 3.7767405936214482e-01
s_4_7 0
s_7_4 0
s_4_8 0
s_8_4 0
s_4_11 0
s_11_4 4.2786891609951727e-01
s_5_6 0
s_6_5 4.7582242605180447e-01
s_5_7 0
s_7_5 8.3910625281212470e-01
s_5_14 0
s_14_5 3.3183291584800623e-01
s_6_8 0
s_8_6 4.3574363347893907e-01
s_7_8 0
s_8_7 0
s_7_9 0
s_9_7 3.5521761091510307e-01
s_7_10 0
s_10_7 1.8839032866091854e-01
s_7_11 0
s_11_7 3.9624343118422667e-01
s_8_11 0
s_11_8 2.1141347284275325e-01
s_9_12 0
s_12_9 3.2796943547230084e-01
s_12_13 0
s_13_12 2.2292628509732104e-01
s_0_0 1.0505360193837019e+00
s_1_1 7.5835989221233868e-01
s_2_2 6.5234314464670540e-01
s_3_3 6.3578526961442439e-01
s_4_4 1.0366253695411152e+00
s_5_5 0.627772851467034
s_6_6 9.3741287972524967e-01
s_7_7 1.2090517024203660e+00
s_8_8 6.1604762165528193e-01
s_9_9 1.1271061183150364e+00
s_10_10 6.6379778321149585e-01
s_11_11 6.1469762289658991e-01
s_12_12 1.0504139573567435e+00
s_13_13 6.8607357147911774e-01
s_14_14 1.0661707199095294e+00
Gamma_0_0 1.02495659390225
Gamma_0_1 0
Gamma_0_2 0
Gamma_0_3 0
Gamma_0_4 0
Gamma_0_5 0
Gamma_0_6 0
Gamma_0_7 0
Gamma_0_8 0
Gamma_0_9 0
Gamma_0_10 0
Gamma_0_11 0
Gamma_0_12 0
Gamma_0_13 0
Gamma_0_14 0
Gamma_1_0 0
Gamma_1_1 8.7083861433237941e-01
Gamma_1_2 0
Gamma_1_3 0
Gamma_1_4 0
Gamma_1_5 0
Gamma_1_6 0
Gamma_1_7 0
Gamma_1_8 0
Gamma_1_9 0
Gamma_1_10 0
Gamma_1_11 0
Gamma_1_12 0
Gamma_1_13 0
Gamma_1_14 0
Gamma_2_0 -4.1536163890684941e-01
Gamma_2_1 -5.0148705595615062e-01
Gamma_2_2 8.0767762420826417e-01
Gamma_2_3 0
Gamma_2_4 0
Gamma_2_5 0
Gamma_2_6 0
Gamma_2_7 0
Gamma_2_8 0
Gamma_2_9 0
Gamma_2_10 0
Gamma_2_11 0
Gamma_2_12 0
Gamma_2_13 0
Gamma_2_14 0
Gamma_3_0 0
Gamma_3_1 4.3089134434306686e-01
Gamma_3_2 5.0402582259006179e-01
Gamma_3_3 7.9736144226719730e-01
Gamma_3_4 0
Gamma_3_5 0
Gamma_3_6 0
Gamma_3_7 0
Gamma_3_8 0
Gamma_3_9 0
Gamma_3_10 0
Gamma_3_11 0
Gamma_3_12 0
Gamma_3_13 0
Gamma_3_14 0
Gamma_4_0 0
Gamma_4_1 0
Gamma_4_2 5.3602011226283486e-01
Gamma_4_3 7.5686838187492111e-01
Gamma_4_4 1.0181480096435465e+00
Gamma_4_5 0
Gamma_4_6 0
Gamma_4_7 0
Gamma_4_8 0
Gamma_4_9 0
Gamma_4_10 0
Gamma_4_11 0
Gamma_4_12 0
Gamma_4_13 0
Gamma_4_14 0
Gamma_5_0 0
Gamma_5_1 0
Gamma_5_2 0
Gamma_5_3 0
Gamma_5_4 0
Gamma_5_5 7.9232117948912273e-01
Gamma_5_6 0
Gamma_5_7 0
Gamma_5_8 0
Gamma_5_9 0
Gamma_5_10 0
Gamma_5_11 0
Gamma_5_12 0
Gamma_5_13 0
Gamma_5_14 0
Gamma_6_0 0
Gamma_6_1 0
Gamma_6_2 0
Gamma_6_3 0
Gamma_6_4 -6.1455191754818028e-01
Gamma_6_5 6.8979883013223853e-01
Gamma_6_6 9.6820084679019447e-01
Gamma_6_7 0
Gamma_6_8 0
Gamma_6_9 0
Gamma_6_10 0
Gamma_6_11 0
Gamma_6_12 0
Gamma_6_13 0
Gamma_6_14 0
Gamma_7_0 0
Gamma_7_1 0
Gamma_7_2 0
Gamma_7_3 0
Gamma_7_4 0
Gamma_7_5 -9.1602743016359778e-01
Gamma_7_6 0
Gamma_7_7 1.0995688711583127e+00
Gamma_7_8 0
Gamma_7_9 0
Gamma_7_10 0
Gamma_7_11 0
Gamma_7_12 0
Gamma_7_13 0
Gamma_7_14 0
Gamma_8_0 0
Gamma_8_1 0
Gamma_8_2 4.4635893282311279e-01
Gamma_8_3 6.1813041168911542e-01
Gamma_8_4 0
Gamma_8_5 0
Gamma_8_6 -6.6010880427315888e-01
Gamma_8_7 0
Gamma_8_8 7.8488701203121114e-01
Gamma_8_9 0
Gamma_8_10 0
Gamma_8_11 0
Gamma_8_12 0
Gamma_8_13 0
Gamma_8_14 0
Gamma_9_0 0
Gamma_9_1 0
Gamma_9_2 0
Gamma_9_3 6.0764878175047876e-01
Gamma_9_4 0
Gamma_9_5 0
Gamma_9_6 0
Gamma_9_7 -5.9600135143731314e-01
Gamma_9_8 0
Gamma_9_9 1.0616525412370266e+00
Gamma_9_10 0
Gamma_9_11 0
Gamma_9_12 0
Gamma_9_13 0
Gamma_9_14 0
Gamma_10_0 0
Gamma_10_1 0
Gamma_10_2 0
Gamma_10_3 0
Gamma_10_4 0
Gamma_10_5 0
Gamma_10_6 0
Gamma_10_7 4.3403954734668915e-01
Gamma_10_8 0
Gamma_10_9 0
Gamma_10_10 0.814737861653364
Gamma_10_11 0
Gamma_10_12 0
Gamma_10_13 0
Gamma_10_14 0
Gamma_11_0 0
Gamma_11_1 0
Gamma_11_2 0
Gamma_11_3 0
Gamma_11_4 -6.5411689788562855e-01
Gamma_11_5 0
Gamma_11_6 0
Gamma_11_7 6.2947869795905487e-01
Gamma_11_8 4.5979720838947413e-01
Gamma_11_9 0
Gamma_11_10 0
Gamma_11_11 0.784026544765284
Gamma_11_12 0
Gamma_11_13 0
Gamma_11_14 0
Gamma_12_0 0
Gamma_12_1 -8.8580108173769567e-01
Gamma_12_2 0
Gamma_12_3 0
Gamma_12_4 0
Gamma_12_5 0
Gamma_12_6 0
Gamma_12_7 0
Gamma_12_8 0
Gamma_12_9 -5.7268615791924060e-01
Gamma_12_10 0
Gamma_12_11 0
Gamma_12_12 1.0248970471987631e+00
Gamma_12_13 0
Gamma_12_14 0
Gamma_13_0 0
Gamma_13_1 4.4688556840981125e-01
Gamma_13_2 0
Gamma_13_3 6.1358122012218275e-01
Gamma_13_4 0
Gamma_13_5 0
Gamma_13_6 0
Gamma_13_7 0
Gamma_13_8 0
Gamma_13_9 0
Gamma_13_10 0
Gamma_13_11 0
Gamma_13_12 4.7215070168042905e-01
Gamma_13_13 8.2829558219220145e-01
Gamma_13_14 0
Gamma_14_0 0
Gamma_14_1 0
Gamma_14_2 0
Gamma_14_3 0
Gamma_14_4 0
Gamma_14_5 5.7604940399935034e-01
Gamma_14_6 0
Gamma_14_7 0
Gamma_14_8 0
Gamma_14_9 0
Gamma_14_10 0
Gamma_14_11 0
Gamma_14_12 0
Gamma_14_13 0
Gamma_14_14 1.0325554318822450e+00
psi_0 6
psi_1 6
psi_2 5
psi_3 4
psi_4 3
psi_5 4
psi_6 2
psi_7 3
psi_8 1
psi_9 2
psi_10 0
psi_11 0
psi_12 1
psi_13 0
psi_14 0
g_0_0 0
g_0_1 0
g_0_2 0
g_0_3 0
g_0_4 0
g_0_5 0
g_0_6 0
g_0_7 0
g_0_8 0
g_0_9 0
g_0_10 0
g_0_11 0
g_0_12 0
g_0_13 0
g_0_14 0
g_1_0 0
g_1_1 0
g_1_2 0
g_1_3 0
g_1_4 0
g_1_5 0
g_1_6 0
g_1_7 0
g_1_8 0
g_1_9 0
g_1_10 0
g_1_11 0
g_1_12 0
g_1_13 0
g_1_14 0
g_2_0 1
g_2_1 1
g_2_2 0
g_2_3 0
g_2_4 0
g_2_5 0
g_2_6 0
g_2_7 0
g_2_8 0
g_2_9 0
g_2_10 0
g_2_11 0
g_2_12 0
g_2_13 0
g_2_14 0
g_3_0 0
g_3_1 1
g_3_2 1
g_3_3 0
g_3_4 0
g_3_5 0
g_3_6 0
g_3_7 0
g_3_8 0
g_3_9 0
g_3_10 0
g_3_11 0
g_3_12 0
g_3_13 0
g_3_14 0
g_4_0 0
g_4_1 0
g_4_2 1
g_4_3 1
g_4_4 0
g_4_5 0
g_4_6 0
g_4_7 0
g_4_8 0
g_4_9 0
g_4_10 0
g_4_11 0
g_4_12 0
g_4_13 0
g_4_14 0
g_5_0 0
g_5_1 0
g_5_2 0
g_5_3 0
g_5_4 0
g_5_5 0
g_5_6 0
g_5_7 0
g_5_8 0
g_5_9 0
g_5_10 0
g_5_11 0
g_5_12 0
g_5_13 0
g_5_14 0
g_6_0 0
g_6_1 0
g_6_2 0
g_6_3 0
g_6_4 1
g_6_5 1
g_6_6 0
g_6_7 0
g_6_8 0
g_6_9 0
g_6_10 0
g_6_11 0
g_6_12 0
g_6_13 0
g_6_14 0
g_7_0 0
g_7_1 0
g_7_2 0
g_7_3 0
g_7_4 0
g_7_5 1
g_7_6 0
g_7_7 0
g_7_8 0
g_7_9 0
g_7_10 0
g_7_11 0
g_7_12 0
g_7_13 0
g_7_14 0
g_8_0 0
g_8_1 0
g_8_2 1
g_8_3 1
g_8_4 0
g_8_5 0
g_8_6 1
g_8_7 0
g_8_8 0
g_8_9 0
g_8_10 0
g_8_11 0
g_8_12 0
g_8_13 0
g_8_14 0
g_9_0 0
g_9_1 0
g_9_2 0
g_9_3 1
g_9_4 0
g_9_5 0
g_9_6 0
g_9_7 1
g_9_8 0
g_9_9 0
g_9_10 0
g_9_11 0
g_9_12 0
g_9_13 0
g_9_14 0
g_10_0 0
g_10_1 0
g_10_2 0
g_10_3 0
g_10_4 0
g_10_5 0
g_10_6 0
g_10_7 1
g_10_8 0
g_10_9 0
g_10_10 0
g_10_11 0
g_10_12 0
g_10_13 0
g_10_14 0
g_11_0 0
g_11_1 0
g_11_2 0
g_11_3 0
g_11_4 1
g_11_5 0
g_11_6 0
g_11_7 1
g_11_8 1
g_11_9 0
g_11_10 0
g_11_11 0
g_11_12 0
g_11_13 0
g_11_14 0
g_12_0 0
g_12_1 1
g_12_2 0
g_12_3 0
g_12_4 0
g_12_5 0
g_12_6 0
g_12_7 0
g_12_8 0
g_12_9 1
g_12_10 0
g_12_11 0
g_12_12 0
g_12_13 0
g_12_14 0
g_13_0 0
g_13_1 1
g_13_2 0
g_13_3 1
g_13_4 0
g_13_5 0
g_13_6 0
g_13_7 0
g_13_8 0
g_13_9 0
g_13_10 0
g_13_11 0
g_13_12 1
g_13_13 0
g_13_14 0
g_14_0 0
g_14_1 0
g_14_2 0
g_14_3 0
g_14_4 0
g_14_5 1
g_14_6 0
g_14_7 0
g_14_8 0
g_14_9 0
g_14_10 0
g_14_11 0
g_14_12 0
g_14_13 0
g_14_14 0
T_0 2.4650264281255514e-02
T_1 -1.3829860709044345e-01
T_2 -2.1359228001498204e-01
T_3 -2.2644719952152548e-01
T_4 1.7985300137012248e-02
T_5 -2.3278843971465610e-01
T_6 -3.2315726874369795e-02
T_7 9.4918167666981454e-02
T_8 -2.4221550527738267e-01
T_9 5.9826695310230431e-02
T_10 -2.0488885962231443e-01
T_11 -2.4331240108591770e-01
T_12 2.4592165788456074e-02
T_13 -1.8838520497634909e-01
T_14 3.2036731464974273e-02
